45
1 0 2
2 0 13
3 0 2
3 2 9
4 0 13
4 1 12
4 3 13
5 1 7
5 2 10
5 3 5
6 0 3
8 2 7
8 3 9
8 4 2
8 5 9
8 6 7
8 7 13
9 0 13
9 4 7
9 7 12
10 3 5
10 6 7
10 8 11
11 0 13
11 1 4
11 5 2
11 7 13
11 8 7
11 9 12
12 1 9
12 3 11
12 4 8
12 5 2
12 7 1
12 10 8
13 0 4
13 1 10
13 3 11
13 5 7
13 7 11
13 8 4
13 12 11
14 7 7
14 10 4
14 13 8
15 2 9
15 3 4
15 5 7
15 8 2
15 10 3
15 12 9
15 13 7
15 14 4
16 0 9
16 1 5
16 3 5
16 4 13
16 6 8
16 7 11
16 8 5
16 9 12
16 10 3
16 11 12
16 13 13
16 14 13
17 0 5
17 1 4
17 2 5
17 4 2
17 5 3
17 6 3
17 8 6
17 10 3
17 13 13
17 16 10
18 0 5
18 1 3
18 2 6
18 3 8
18 6 5
18 8 4
18 9 10
18 10 2
18 11 13
18 14 3
18 16 2
18 17 9
19 0 1
19 3 7
19 4 8
19 5 11
19 8 3
19 11 1
19 12 3
19 13 7
19 14 6
19 17 1
19 18 9
20 2 6
20 7 8
20 8 2
20 10 13
20 11 1
20 18 2
20 19 12
21 1 8
21 2 5
21 6 3
21 10 3
21 11 3
21 13 9
21 17 1
21 18 6
21 19 1
22 0 8
22 3 1
22 4 11
22 5 1
22 6 9
22 7 4
22 12 4
22 13 3
22 15 10
22 21 5
23 1 5
23 3 13
23 4 13
23 8 3
23 11 13
23 15 7
23 16 7
23 19 3
23 20 3
23 21 4
24 0 3
24 2 8
24 3 4
24 4 10
24 8 7
24 9 10
24 11 3
24 13 11
24 15 5
24 16 11
24 17 9
24 18 9
24 20 11
24 21 13
24 22 9
25 0 4
25 1 6
25 2 4
25 3 11
25 4 4
25 5 4
25 8 5
25 9 7
25 10 1
25 12 12
25 14 6
25 20 8
25 24 9
26 1 12
26 4 12
26 11 13
26 14 3
26 15 12
26 18 9
26 19 5
26 21 13
26 22 7
26 23 11
26 24 1
26 25 9
27 2 11
27 3 6
27 4 2
27 6 7
27 9 8
27 12 8
27 16 13
27 19 9
27 20 7
27 23 2
27 25 9
27 26 7
28 0 6
28 3 6
28 4 11
28 5 12
28 7 11
28 8 8
28 9 2
28 10 1
28 12 3
28 13 1
28 15 8
28 18 10
28 19 13
28 20 6
28 22 3
28 24 8
28 27 5
29 1 11
29 2 13
29 3 4
29 7 4
29 9 7
29 13 11
29 15 13
29 18 8
29 19 12
29 20 4
29 22 4
29 24 1
29 25 7
29 27 12
30 0 3
30 1 10
30 2 1
30 4 2
30 6 13
30 7 4
30 10 6
30 11 11
30 16 9
30 17 5
30 19 10
30 22 2
30 23 6
30 24 9
30 25 3
30 26 13
30 27 10
30 29 5
31 0 1
31 1 3
31 3 1
31 4 3
31 6 9
31 11 3
31 12 9
31 13 5
31 14 1
31 15 3
31 16 4
31 17 5
31 18 3
31 19 5
31 20 10
31 22 11
31 23 2
31 24 5
31 27 7
31 28 11
31 29 9
31 30 7
32 1 2
32 2 9
32 7 12
32 8 7
32 10 13
32 11 10
32 14 10
32 17 9
32 18 7
32 23 12
32 25 4
32 27 11
33 0 7
33 5 10
33 6 4
33 10 7
33 11 9
33 12 7
33 13 7
33 14 1
33 15 11
33 17 10
33 19 13
33 20 3
33 23 2
33 28 12
33 29 1
33 30 11
33 31 9
33 32 12
34 2 11
34 3 13
34 6 7
34 7 10
34 8 13
34 9 12
34 10 9
34 13 5
34 14 5
34 15 11
34 19 3
34 20 11
34 21 5
34 22 5
34 23 7
34 25 5
34 30 4
34 32 3
34 33 12
35 0 9
35 3 5
35 4 1
35 6 1
35 9 12
35 10 9
35 15 6
35 16 13
35 18 12
35 19 3
35 23 1
35 24 3
35 25 5
35 26 7
35 29 9
35 30 10
35 31 1
36 0 6
36 1 8
36 2 11
36 3 6
36 4 10
36 5 7
36 10 10
36 12 13
36 13 1
36 15 7
36 17 10
36 18 7
36 22 2
36 24 6
36 25 9
36 26 13
36 27 4
36 28 5
36 31 7
36 35 8
37 0 2
37 1 11
37 6 10
37 7 5
37 9 9
37 15 3
37 16 3
37 17 2
37 18 8
37 23 12
37 24 11
37 25 13
37 26 3
37 28 2
37 29 2
37 30 5
37 32 2
37 34 2
37 35 4
38 0 12
38 2 10
38 3 7
38 4 8
38 6 7
38 8 13
38 9 9
38 11 4
38 13 10
38 14 4
38 15 6
38 16 11
38 20 10
38 23 8
38 24 6
38 26 3
38 27 5
38 29 3
38 30 13
38 31 13
38 33 13
38 34 3
38 35 10
38 36 6
39 1 13
39 6 7
39 7 3
39 8 4
39 10 2
39 12 9
39 17 11
39 19 10
39 20 12
39 22 4
39 26 4
39 27 12
39 31 1
39 33 1
39 34 8
39 36 7
39 37 3
39 38 9
40 0 4
40 8 9
40 9 13
40 11 8
40 12 9
40 13 13
40 14 10
40 16 7
40 18 13
40 19 10
40 23 13
40 26 1
40 27 4
40 28 12
40 29 6
40 31 2
40 32 7
40 33 3
40 34 1
40 36 10
40 37 13
40 38 12
40 39 13
41 1 5
41 3 4
41 4 6
41 6 11
41 7 12
41 8 2
41 13 7
41 14 7
41 15 4
41 16 2
41 19 9
41 21 9
41 23 12
41 24 6
41 26 3
41 27 3
41 30 9
41 31 11
41 32 13
41 33 6
41 34 9
41 35 3
41 37 12
41 40 10
42 0 9
42 1 1
42 2 8
42 4 7
42 9 2
42 13 8
42 14 7
42 19 12
42 23 13
42 24 13
42 25 6
42 27 10
42 28 7
42 30 13
42 33 12
42 34 9
42 35 13
42 38 10
43 3 1
43 4 9
43 5 2
43 7 3
43 8 1
43 13 5
43 14 9
43 18 8
43 21 2
43 22 7
43 24 3
43 27 10
43 29 10
43 31 13
43 32 6
43 33 11
43 35 8
43 40 4
44 0 4
44 2 2
44 3 5
44 4 7
44 5 9
44 6 5
44 8 11
44 11 1
44 12 11
44 16 5
44 17 9
44 19 2
44 21 4
44 22 12
44 23 3
44 27 7
44 28 9
44 30 8
44 31 2
44 34 8
44 36 3
44 37 12
44 38 7
44 41 6
44 43 8
